(declare-sort Epoch 0)
(declare-sort ModelId 0)
(declare-sort Node 0)
(declare-sort StateId 0)
(declare-fun le (ModelId Epoch Epoch) Bool)
(declare-fun ep (ModelId StateId Node) Epoch)
(declare-fun S1 () StateId)
(declare-fun Model_M0_trace_pos () ModelId)
(declare-fun first (ModelId) Node)
(declare-fun one (ModelId) Epoch)
(declare-fun zero (ModelId) Epoch)
(declare-fun locked (ModelId StateId Epoch Node) Bool)
(declare-fun transfer (ModelId StateId Epoch Node) Bool)
(declare-fun held (ModelId StateId Node) Bool)
(assert (let ((a!1 (forall ((Node_1 Node))
             (forall ((Epoch_1 Epoch))
               (forall ((Epoch_2 Epoch))
                 (let ((a!1 (or (le Model_M0_trace_pos
                                    Epoch_2
                                    (ep Model_M0_trace_pos S1 Node_1))
                                (not (le Model_M0_trace_pos
                                         Epoch_1
                                         (ep Model_M0_trace_pos S1 Node_1))))))
                   (=> (and (le Model_M0_trace_pos Epoch_2 Epoch_1)
                            (distinct Epoch_2 Epoch_1))
                       a!1)))))))
  (and (= (ep Model_M0_trace_pos S1 Node!val!0) Epoch!val!2)
       (= (ep Model_M0_trace_pos S1 Node!val!1) Epoch!val!3)
       (= (ep Model_M0_trace_pos S1 Node!val!2) Epoch!val!2)
       (= (held Model_M0_trace_pos S1 Node!val!0) false)
       (= (held Model_M0_trace_pos S1 Node!val!1) false)
       (= (held Model_M0_trace_pos S1 Node!val!2) false)
       (= (transfer Model_M0_trace_pos S1 Epoch!val!3 Node!val!0) false)
       (= (transfer Model_M0_trace_pos S1 Epoch!val!3 Node!val!1) false)
       (= (transfer Model_M0_trace_pos S1 Epoch!val!3 Node!val!2) false)
       (= (transfer Model_M0_trace_pos S1 Epoch!val!0 Node!val!0) false)
       (= (transfer Model_M0_trace_pos S1 Epoch!val!0 Node!val!1) false)
       (= (transfer Model_M0_trace_pos S1 Epoch!val!0 Node!val!2) false)
       (= (transfer Model_M0_trace_pos S1 Epoch!val!2 Node!val!0) false)
       (= (transfer Model_M0_trace_pos S1 Epoch!val!2 Node!val!1) false)
       (= (transfer Model_M0_trace_pos S1 Epoch!val!2 Node!val!2) false)
       (= (transfer Model_M0_trace_pos S1 Epoch!val!1 Node!val!0) false)
       (= (transfer Model_M0_trace_pos S1 Epoch!val!1 Node!val!1) false)
       (= (transfer Model_M0_trace_pos S1 Epoch!val!1 Node!val!2) false)
       (= (locked Model_M0_trace_pos S1 Epoch!val!3 Node!val!0) false)
       (= (locked Model_M0_trace_pos S1 Epoch!val!3 Node!val!1) false)
       (= (locked Model_M0_trace_pos S1 Epoch!val!3 Node!val!2) false)
       (= (locked Model_M0_trace_pos S1 Epoch!val!0 Node!val!0) false)
       (= (locked Model_M0_trace_pos S1 Epoch!val!0 Node!val!1) false)
       (= (locked Model_M0_trace_pos S1 Epoch!val!0 Node!val!2) false)
       (= (locked Model_M0_trace_pos S1 Epoch!val!2 Node!val!0) false)
       (= (locked Model_M0_trace_pos S1 Epoch!val!2 Node!val!1) false)
       (= (locked Model_M0_trace_pos S1 Epoch!val!2 Node!val!2) false)
       (= (locked Model_M0_trace_pos S1 Epoch!val!1 Node!val!0) false)
       (= (locked Model_M0_trace_pos S1 Epoch!val!1 Node!val!1) false)
       (= (locked Model_M0_trace_pos S1 Epoch!val!1 Node!val!2) false)
       (= (le Model_M0_trace_pos Epoch!val!3 Epoch!val!3) true)
       (= (le Model_M0_trace_pos Epoch!val!3 Epoch!val!0) true)
       (= (le Model_M0_trace_pos Epoch!val!3 Epoch!val!2) false)
       (= (le Model_M0_trace_pos Epoch!val!3 Epoch!val!1) true)
       (= (le Model_M0_trace_pos Epoch!val!0 Epoch!val!3) true)
       (= (le Model_M0_trace_pos Epoch!val!0 Epoch!val!0) true)
       (= (le Model_M0_trace_pos Epoch!val!0 Epoch!val!2) true)
       (= (le Model_M0_trace_pos Epoch!val!0 Epoch!val!1) true)
       (= (le Model_M0_trace_pos Epoch!val!2 Epoch!val!3) true)
       (= (le Model_M0_trace_pos Epoch!val!2 Epoch!val!0) true)
       (= (le Model_M0_trace_pos Epoch!val!2 Epoch!val!2) true)
       (= (le Model_M0_trace_pos Epoch!val!2 Epoch!val!1) true)
       (= (le Model_M0_trace_pos Epoch!val!1 Epoch!val!3) true)
       (= (le Model_M0_trace_pos Epoch!val!1 Epoch!val!0) true)
       (= (le Model_M0_trace_pos Epoch!val!1 Epoch!val!2) false)
       (= (le Model_M0_trace_pos Epoch!val!1 Epoch!val!1) true)
       (= (zero Model_M0_trace_pos) Epoch!val!1)
       (= (one Model_M0_trace_pos) Epoch!val!1)
       (= (first Model_M0_trace_pos) Node!val!2)
       a!1)))

(check-sat)